/* Función objetivo: minimizar tiempos */
min: 999999 x11 + 999999 x22 + 999999 x33 + 999999 x44 + 999999 x55 + 999999 x66 + 999999 x77 + 999999 x88 + 999999 x99 + 999999 x14 + 999999 x41 + 999999 x18 + 999999 x81 + 999999 x19 + 999999 x91 + 999999 x25 + 999999 x52 + 999999 x26 + 999999 x62 + 999999 x28 + 999999 x82 + 999999 x36 + 999999 x63 + 999999 x37 + 999999 x73 + 999999 x39 + 999999 x93 + 999999 x46 + 999999 x64 + 999999 x48 + 999999 x84 + 999999 x59 + 999999 x95 + 999999 x67 + 999999 x76 + 999999 x68 + 999999 x86 + 10 x12 + 10 x21 + 24 x13 + 24 x31 + 30 x15 + 30 x51 + 15 x16 + 999999 x61 + 12 x17 + 12 x71 + 35 x23 + 35 x32 + 17 x24 + 17 x42 + 27 x34 + 27 x43 + 25 x35 + 25 x53 + 999999 x38 + 20 x83 + 12 x45 + 12 x54 + 18 x47 + 18 x74 + 15 x49 + 15 x94 + 20 x56 + 20 x65 + 24 x57 + 24 x75 + 40 x58 + 40 x85 + 21 x69 + 21 x96 + 5 x78 + 21 x79 + 15 x87 + 23 x89 + 15 x97 + 7 x98 + 20 x29 + 20 x92 + 999999 x27 + 8 x72; 

/* Método hungaro */
/* Máximo una asignación por fila */
x11 + x12 + x13 + x14 + x15 + x16 + x17 + x18 + x19 = 1;
x21 + x22 + x23 + x24 + x25 + x26 + x27 + x28 + x29 = 1;
x31 + x32 + x33 + x34 + x35 + x36 + x37 + x38 + x39 = 1;
x41 + x42 + x43 + x44 + x45 + x46 + x47 + x48 + x49 = 1;
x51 + x52 + x53 + x54 + x55 + x56 + x57 + x58 + x59 = 1;
x61 + x62 + x63 + x64 + x65 + x66 + x67 + x68 + x69 = 1;
x71 + x72 + x73 + x74 + x75 + x76 + x77 + x78 + x79 = 1;
x81 + x82 + x83 + x84 + x85 + x86 + x87 + x88 + x89 = 1;
x91 + x92 + x93 + x94 + x95 + x96 + x97 + x98 + x99 = 1;

/* Máximo una asignación por columna */
x11 + x21 + x31 + x41 + x51 + x61 + x71 + x81 + x91 = 1;
x12 + x22 + x32 + x42 + x52 + x62 + x72 + x82 + x92 = 1;
x13 + x23 + x33 + x43 + x53 + x63 + x73 + x83 + x93 = 1;
x14 + x24 + x34 + x44 + x54 + x64 + x74 + x84 + x94 = 1;
x15 + x25 + x35 + x45 + x55 + x65 + x75 + x85 + x95 = 1;
x16 + x26 + x36 + x46 + x56 + x66 + x76 + x86 + x96 = 1;
x17 + x27 + x37 + x47 + x57 + x67 + x77 + x87 + x97 = 1;
x18 + x28 + x38 + x48 + x58 + x68 + x78 + x88 + x98 = 1;
x19 + x29 + x39 + x49 + x59 + x69 + x79 + x89 + x99 = 1;

/* Condiciones de quiebre */
x61 = 0;
x45 = 0;
x27 = 0;
x38 = 0;
